
products_required = 3;

nearby_stores =8;

particular_product_cost = 
array2d(1..products_required,1..nearby_stores,
[
100.00, 300.20, 210.90, 0.00,  450.00, 0.0, 150.22, 100.20,
0.00,  300.00, 0.00, 100.00, 150.00, 170.00, 210.10, 200.20, 
0.00,  170.25, 200.90, 300.50, 250.20, 280.80, 290.50, 190.10,
]);

store_delivery_costs = [12.56, 15.2, 33.5,120.9,120.1,12.3,1.1,10.1];
